; QF_LIA benchmark: linear_15
(set-logic QF_LIA)
(declare-fun x () Int)
(declare-fun y () Int)
(assert (= (+ (* 5 x) (* 10 y)) 78))
(assert (>= x 0))
(assert (>= y 0))
(assert (<= x 44))
(check-sat)
(exit)
